\ Generated by MPModelProtoExporter
\   Name             : SCIP
\   Format           : Free
\   Constraints      : 45
\   Variables        : 465
\     Binary         : 465
\     Integer        : 0
\     Continuous     : 0
Minimize
 Obj: +76 x[0,0] +58 x[0,1] +72 x[0,2] +89 x[0,3] +74 x[0,4] +77 x[0,5] +76 x[0,6] +68 x[0,7] +94 x[0,8] +15 x[0,9] +82 x[0,10] +3 x[0,11] +35 x[0,12] +77 x[0,13] +34 x[0,14] +81 x[1,0] +84 x[1,1] +82 x[1,2] +46 x[1,3] +31 x[1,4] +86 x[1,5] +71 x[1,6] +50 x[1,7] +83 x[1,8] +76 x[1,9] +94 x[1,10] +52 x[1,11] +38 x[1,12] +93 x[1,13] +56 x[1,14] +98 x[2,0] +26 x[2,1] +45 x[2,2] +45 x[2,3] +14 x[2,4] +35 x[2,5] +84 x[2,6] +52 x[2,7] +51 x[2,8] +58 x[2,9] +17 x[2,10] +83 x[2,11] +70 x[2,12] +85 x[2,13] +64 x[2,14] +9 x[3,0] +49 x[3,1] +26 x[3,2] +37 x[3,3] +94 x[3,4] +80 x[3,5] +57 x[3,6] +96 x[3,7] +18 x[3,8] +96 x[3,9] +22 x[3,10] +13 x[3,11] +75 x[3,12] +57 x[3,13] +20 x[3,14] +49 x[4,0] +7 x[4,1] +66 x[4,2] +78 x[4,3] +20 x[4,4] +11 x[4,5] +9 x[4,6] +80 x[4,7] +14 x[4,8] +35 x[4,9] +33 x[4,10] +1 x[4,11] +79 x[4,12] +37 x[4,13] +3 x[4,14] +68 x[5,0] +94 x[5,1] +82 x[5,2] +17 x[5,3] +52 x[5,4] +3 x[5,5] +47 x[5,7] +59 x[5,8] +57 x[5,9] +27 x[5,10] +54 x[5,11] +68 x[5,12] +11 x[5,13] +9 x[5,14] +89 x[6,0] +48 x[6,1] +61 x[6,2] +26 x[6,3] +76 x[6,4] +33 x[6,5] +13 x[6,6] +84 x[6,7] +39 x[6,8] +61 x[6,9] +44 x[6,10] +76 x[6,11] +19 x[6,12] +84 x[6,13] +60 x[6,14] +96 x[7,0] +3 x[7,1] +14 x[7,2] +90 x[7,3] +82 x[7,4] +42 x[7,5] +69 x[7,6] +66 x[7,7] +45 x[7,9] +15 x[7,10] +58 x[7,11] +10 x[7,12] +72 x[7,13] +42 x[7,14] +97 x[8,0] +64 x[8,1] +59 x[8,2] +4 x[8,3] +77 x[8,4] +37 x[8,5] +59 x[8,6] +8 x[8,7] +30 x[8,8] +90 x[8,9] +65 x[8,10] +49 x[8,11] +19 x[8,12] +99 x[8,13] +61 x[8,14] +9 x[9,0] +82 x[9,1] +30 x[9,2] +19 x[9,3] +75 x[9,4] +34 x[9,5] +20 x[9,6] +34 x[9,7] +49 x[9,8] +2 x[9,9] +95 x[9,10] +51 x[9,11] +39 x[9,12] +52 x[9,13] +50 x[9,14] +54 x[10,0] +73 x[10,1] +37 x[10,2] +59 x[10,3] +8 x[10,4] +55 x[10,5] +63 x[10,6] +89 x[10,7] +53 x[10,8] +80 x[10,9] +68 x[10,10] +52 x[10,11] +30 x[10,12] +52 x[10,13] +54 x[10,14] +1 x[11,0] +64 x[11,1] +85 x[11,2] +9 x[11,3] +56 x[11,4] +33 x[11,5] +84 x[11,6] +24 x[11,7] +30 x[11,8] +5 x[11,9] +24 x[11,10] +79 x[11,11] +83 x[11,12] +21 x[11,13] +84 x[11,14] +63 x[12,0] +9 x[12,1] +60 x[12,2] +2 x[12,3] +43 x[12,4] +60 x[12,5] +5 x[12,6] +56 x[12,7] +2 x[12,8] +51 x[12,9] +97 x[12,10] +84 x[12,11] +16 x[12,12] +93 x[12,13] +54 x[12,14] +13 x[13,0] +29 x[13,1] +52 x[13,2] +91 x[13,3] +33 x[13,4] +47 x[13,5] +38 x[13,6] +54 x[13,7] +64 x[13,8] +77 x[13,9] +71 x[13,10] +74 x[13,11] +86 x[13,12] +59 x[13,13] +60 x[13,14] +91 x[14,0] +35 x[14,1] +79 x[14,2] +17 x[14,3] +2 x[14,4] +81 x[14,5] +66 x[14,6] +81 x[14,7] +50 x[14,8] +44 x[14,9] +92 x[14,10] +18 x[14,11] +38 x[14,12] +21 x[14,13] +56 x[14,14] +32 x[15,0] +39 x[15,1] +12 x[15,2] +91 x[15,3] +96 x[15,4] +56 x[15,5] +87 x[15,6] +44 x[15,7] +92 x[15,8] +22 x[15,9] +21 x[15,10] +25 x[15,11] +22 x[15,12] +65 x[15,13] +91 x[15,14] +93 x[16,0] +20 x[16,1] +77 x[16,2] +15 x[16,3] +56 x[16,4] +80 x[16,5] +48 x[16,6] +74 x[16,7] +1 x[16,8] +86 x[16,9] +73 x[16,10] +47 x[16,11] +52 x[16,12] +8 x[16,13] +26 x[16,14] +50 x[17,0] +61 x[17,1] +90 x[17,2] +66 x[17,3] +65 x[17,4] +55 x[17,5] +51 x[17,6] +30 x[17,7] +90 x[17,8] +92 x[17,9] +80 x[17,10] +6 x[17,11] +49 x[17,12] +20 x[17,13] +89 x[17,14] +4 x[18,0] +52 x[18,1] +27 x[18,2] +58 x[18,3] +75 x[18,4] +82 x[18,5] +19 x[18,6] +77 x[18,7] +22 x[18,8] +54 x[18,9] +84 x[18,10] +87 x[18,11] +34 x[18,12] +74 x[18,13] +15 x[18,14] +62 x[19,0] +16 x[19,1] +91 x[19,2] +98 x[19,3] +84 x[19,4] +94 x[19,5] +23 x[19,6] +4 x[19,7] +7 x[19,8] +37 x[19,9] +97 x[19,10] +22 x[19,11] +12 x[19,12] +5 x[19,13] +27 x[19,14] +29 x[20,0] +26 x[20,2] +46 x[20,3] +97 x[20,4] +65 x[20,5] +59 x[20,6] +31 x[20,7] +58 x[20,8] +62 x[20,9] +99 x[20,10] +6 x[20,11] +95 x[20,12] +44 x[20,13] +20 x[20,14] +23 x[21,0] +32 x[21,1] +45 x[21,2] +68 x[21,3] +25 x[21,4] +25 x[21,5] +30 x[21,6] +65 x[21,7] +74 x[21,8] +88 x[21,9] +29 x[21,10] +59 x[21,11] +71 x[21,12] +9 x[21,13] +49 x[21,14] +49 x[22,0] +21 x[22,1] +38 x[22,2] +5 x[22,3] +66 x[22,4] +9 x[22,5] +33 x[22,6] +31 x[22,7] +86 x[22,8] +92 x[22,9] +31 x[22,10] +59 x[22,11] +14 x[22,12] +26 x[22,13] +54 x[22,14] +65 x[23,0] +51 x[23,1] +77 x[23,2] +73 x[23,3] +45 x[23,4] +47 x[23,5] +95 x[23,6] +91 x[23,7] +42 x[23,8] +97 x[23,9] +40 x[23,10] +22 x[23,11] +54 x[23,12] +28 x[23,13] +91 x[23,14] +72 x[24,0] +97 x[24,1] +95 x[24,2] +81 x[24,3] +47 x[24,4] +80 x[24,5] +66 x[24,6] +40 x[24,7] +56 x[24,8] +45 x[24,9] +89 x[24,10] +31 x[24,11] +62 x[24,12] +68 x[24,13] +52 x[24,14] +20 x[25,0] +25 x[25,1] +8 x[25,2] +75 x[25,3] +5 x[25,4] +22 x[25,5] +72 x[25,6] +21 x[25,7] +4 x[25,8] +40 x[25,9] +33 x[25,10] +90 x[25,11] +81 x[25,12] +90 x[25,13] +94 x[25,14] +35 x[26,0] +43 x[26,1] +68 x[26,2] +13 x[26,3] +31 x[26,4] +44 x[26,5] +77 x[26,6] +22 x[26,7] +74 x[26,8] +96 x[26,9] +80 x[26,10] +94 x[26,11] +83 x[26,12] +51 x[26,13] +45 x[26,14] +63 x[27,0] +54 x[27,1] +7 x[27,2] +13 x[27,3] +77 x[27,4] +69 x[27,5] +62 x[27,6] +82 x[27,7] +63 x[27,8] +65 x[27,9] +16 x[27,10] +6 x[27,11] +14 x[27,12] +24 x[27,13] +93 x[27,14] +43 x[28,0] +33 x[28,1] +23 x[28,2] +25 x[28,3] +3 x[28,5] +76 x[28,6] +33 x[28,7] +64 x[28,8] +54 x[28,9] +39 x[28,10] +98 x[28,11] +10 x[28,12] +64 x[28,13] +61 x[28,14] +90 x[29,0] +39 x[29,1] +88 x[29,2] +17 x[29,3] +14 x[29,4] +66 x[29,5] +27 x[29,6] +42 x[29,7] +88 x[29,8] +74 x[29,9] +76 x[29,10] +58 x[29,11] +56 x[29,12] +16 x[29,13] +96 x[29,14] +487 y[0] +587 y[1] +704 y[2] +277 y[3] +170 y[4] +366 y[5] +225 y[6] +437 y[7] +99 y[8] +305 y[9] +619 y[10] +618 y[11] +726 y[12] +429 y[13] +191 y[14] 
Subject to
 auto_c_000000000: +1 x[0,0] +1 x[0,1] +1 x[0,2] +1 x[0,3] +1 x[0,4] +1 x[0,5] +1 x[0,6] +1 x[0,7] +1 x[0,8] +1 x[0,9] +1 x[0,10] +1 x[0,11] +1 x[0,12] +1 x[0,13] +1 x[0,14]  = 1
 auto_c_000000001: +1 x[1,0] +1 x[1,1] +1 x[1,2] +1 x[1,3] +1 x[1,4] +1 x[1,5] +1 x[1,6] +1 x[1,7] +1 x[1,8] +1 x[1,9] +1 x[1,10] +1 x[1,11] +1 x[1,12] +1 x[1,13] +1 x[1,14]  = 1
 auto_c_000000002: +1 x[2,0] +1 x[2,1] +1 x[2,2] +1 x[2,3] +1 x[2,4] +1 x[2,5] +1 x[2,6] +1 x[2,7] +1 x[2,8] +1 x[2,9] +1 x[2,10] +1 x[2,11] +1 x[2,12] +1 x[2,13] +1 x[2,14]  = 1
 auto_c_000000003: +1 x[3,0] +1 x[3,1] +1 x[3,2] +1 x[3,3] +1 x[3,4] +1 x[3,5] +1 x[3,6] +1 x[3,7] +1 x[3,8] +1 x[3,9] +1 x[3,10] +1 x[3,11] +1 x[3,12] +1 x[3,13] +1 x[3,14]  = 1
 auto_c_000000004: +1 x[4,0] +1 x[4,1] +1 x[4,2] +1 x[4,3] +1 x[4,4] +1 x[4,5] +1 x[4,6] +1 x[4,7] +1 x[4,8] +1 x[4,9] +1 x[4,10] +1 x[4,11] +1 x[4,12] +1 x[4,13] +1 x[4,14]  = 1
 auto_c_000000005: +1 x[5,0] +1 x[5,1] +1 x[5,2] +1 x[5,3] +1 x[5,4] +1 x[5,5] +1 x[5,6] +1 x[5,7] +1 x[5,8] +1 x[5,9] +1 x[5,10] +1 x[5,11] +1 x[5,12] +1 x[5,13] +1 x[5,14]  = 1
 auto_c_000000006: +1 x[6,0] +1 x[6,1] +1 x[6,2] +1 x[6,3] +1 x[6,4] +1 x[6,5] +1 x[6,6] +1 x[6,7] +1 x[6,8] +1 x[6,9] +1 x[6,10] +1 x[6,11] +1 x[6,12] +1 x[6,13] +1 x[6,14]  = 1
 auto_c_000000007: +1 x[7,0] +1 x[7,1] +1 x[7,2] +1 x[7,3] +1 x[7,4] +1 x[7,5] +1 x[7,6] +1 x[7,7] +1 x[7,8] +1 x[7,9] +1 x[7,10] +1 x[7,11] +1 x[7,12] +1 x[7,13] +1 x[7,14]  = 1
 auto_c_000000008: +1 x[8,0] +1 x[8,1] +1 x[8,2] +1 x[8,3] +1 x[8,4] +1 x[8,5] +1 x[8,6] +1 x[8,7] +1 x[8,8] +1 x[8,9] +1 x[8,10] +1 x[8,11] +1 x[8,12] +1 x[8,13] +1 x[8,14]  = 1
 auto_c_000000009: +1 x[9,0] +1 x[9,1] +1 x[9,2] +1 x[9,3] +1 x[9,4] +1 x[9,5] +1 x[9,6] +1 x[9,7] +1 x[9,8] +1 x[9,9] +1 x[9,10] +1 x[9,11] +1 x[9,12] +1 x[9,13] +1 x[9,14]  = 1
 auto_c_000000010: +1 x[10,0] +1 x[10,1] +1 x[10,2] +1 x[10,3] +1 x[10,4] +1 x[10,5] +1 x[10,6] +1 x[10,7] +1 x[10,8] +1 x[10,9] +1 x[10,10] +1 x[10,11] +1 x[10,12] +1 x[10,13] +1 x[10,14]  = 1
 auto_c_000000011: +1 x[11,0] +1 x[11,1] +1 x[11,2] +1 x[11,3] +1 x[11,4] +1 x[11,5] +1 x[11,6] +1 x[11,7] +1 x[11,8] +1 x[11,9] +1 x[11,10] +1 x[11,11] +1 x[11,12] +1 x[11,13] +1 x[11,14]  = 1
 auto_c_000000012: +1 x[12,0] +1 x[12,1] +1 x[12,2] +1 x[12,3] +1 x[12,4] +1 x[12,5] +1 x[12,6] +1 x[12,7] +1 x[12,8] +1 x[12,9] +1 x[12,10] +1 x[12,11] +1 x[12,12] +1 x[12,13] +1 x[12,14]  = 1
 auto_c_000000013: +1 x[13,0] +1 x[13,1] +1 x[13,2] +1 x[13,3] +1 x[13,4] +1 x[13,5] +1 x[13,6] +1 x[13,7] +1 x[13,8] +1 x[13,9] +1 x[13,10] +1 x[13,11] +1 x[13,12] +1 x[13,13] +1 x[13,14]  = 1
 auto_c_000000014: +1 x[14,0] +1 x[14,1] +1 x[14,2] +1 x[14,3] +1 x[14,4] +1 x[14,5] +1 x[14,6] +1 x[14,7] +1 x[14,8] +1 x[14,9] +1 x[14,10] +1 x[14,11] +1 x[14,12] +1 x[14,13] +1 x[14,14]  = 1
 auto_c_000000015: +1 x[15,0] +1 x[15,1] +1 x[15,2] +1 x[15,3] +1 x[15,4] +1 x[15,5] +1 x[15,6] +1 x[15,7] +1 x[15,8] +1 x[15,9] +1 x[15,10] +1 x[15,11] +1 x[15,12] +1 x[15,13] +1 x[15,14]  = 1
 auto_c_000000016: +1 x[16,0] +1 x[16,1] +1 x[16,2] +1 x[16,3] +1 x[16,4] +1 x[16,5] +1 x[16,6] +1 x[16,7] +1 x[16,8] +1 x[16,9] +1 x[16,10] +1 x[16,11] +1 x[16,12] +1 x[16,13] +1 x[16,14]  = 1
 auto_c_000000017: +1 x[17,0] +1 x[17,1] +1 x[17,2] +1 x[17,3] +1 x[17,4] +1 x[17,5] +1 x[17,6] +1 x[17,7] +1 x[17,8] +1 x[17,9] +1 x[17,10] +1 x[17,11] +1 x[17,12] +1 x[17,13] +1 x[17,14]  = 1
 auto_c_000000018: +1 x[18,0] +1 x[18,1] +1 x[18,2] +1 x[18,3] +1 x[18,4] +1 x[18,5] +1 x[18,6] +1 x[18,7] +1 x[18,8] +1 x[18,9] +1 x[18,10] +1 x[18,11] +1 x[18,12] +1 x[18,13] +1 x[18,14]  = 1
 auto_c_000000019: +1 x[19,0] +1 x[19,1] +1 x[19,2] +1 x[19,3] +1 x[19,4] +1 x[19,5] +1 x[19,6] +1 x[19,7] +1 x[19,8] +1 x[19,9] +1 x[19,10] +1 x[19,11] +1 x[19,12] +1 x[19,13] +1 x[19,14]  = 1
 auto_c_000000020: +1 x[20,0] +1 x[20,1] +1 x[20,2] +1 x[20,3] +1 x[20,4] +1 x[20,5] +1 x[20,6] +1 x[20,7] +1 x[20,8] +1 x[20,9] +1 x[20,10] +1 x[20,11] +1 x[20,12] +1 x[20,13] +1 x[20,14]  = 1
 auto_c_000000021: +1 x[21,0] +1 x[21,1] +1 x[21,2] +1 x[21,3] +1 x[21,4] +1 x[21,5] +1 x[21,6] +1 x[21,7] +1 x[21,8] +1 x[21,9] +1 x[21,10] +1 x[21,11] +1 x[21,12] +1 x[21,13] +1 x[21,14]  = 1
 auto_c_000000022: +1 x[22,0] +1 x[22,1] +1 x[22,2] +1 x[22,3] +1 x[22,4] +1 x[22,5] +1 x[22,6] +1 x[22,7] +1 x[22,8] +1 x[22,9] +1 x[22,10] +1 x[22,11] +1 x[22,12] +1 x[22,13] +1 x[22,14]  = 1
 auto_c_000000023: +1 x[23,0] +1 x[23,1] +1 x[23,2] +1 x[23,3] +1 x[23,4] +1 x[23,5] +1 x[23,6] +1 x[23,7] +1 x[23,8] +1 x[23,9] +1 x[23,10] +1 x[23,11] +1 x[23,12] +1 x[23,13] +1 x[23,14]  = 1
 auto_c_000000024: +1 x[24,0] +1 x[24,1] +1 x[24,2] +1 x[24,3] +1 x[24,4] +1 x[24,5] +1 x[24,6] +1 x[24,7] +1 x[24,8] +1 x[24,9] +1 x[24,10] +1 x[24,11] +1 x[24,12] +1 x[24,13] +1 x[24,14]  = 1
 auto_c_000000025: +1 x[25,0] +1 x[25,1] +1 x[25,2] +1 x[25,3] +1 x[25,4] +1 x[25,5] +1 x[25,6] +1 x[25,7] +1 x[25,8] +1 x[25,9] +1 x[25,10] +1 x[25,11] +1 x[25,12] +1 x[25,13] +1 x[25,14]  = 1
 auto_c_000000026: +1 x[26,0] +1 x[26,1] +1 x[26,2] +1 x[26,3] +1 x[26,4] +1 x[26,5] +1 x[26,6] +1 x[26,7] +1 x[26,8] +1 x[26,9] +1 x[26,10] +1 x[26,11] +1 x[26,12] +1 x[26,13] +1 x[26,14]  = 1
 auto_c_000000027: +1 x[27,0] +1 x[27,1] +1 x[27,2] +1 x[27,3] +1 x[27,4] +1 x[27,5] +1 x[27,6] +1 x[27,7] +1 x[27,8] +1 x[27,9] +1 x[27,10] +1 x[27,11] +1 x[27,12] +1 x[27,13] +1 x[27,14]  = 1
 auto_c_000000028: +1 x[28,0] +1 x[28,1] +1 x[28,2] +1 x[28,3] +1 x[28,4] +1 x[28,5] +1 x[28,6] +1 x[28,7] +1 x[28,8] +1 x[28,9] +1 x[28,10] +1 x[28,11] +1 x[28,12] +1 x[28,13] +1 x[28,14]  = 1
 auto_c_000000029: +1 x[29,0] +1 x[29,1] +1 x[29,2] +1 x[29,3] +1 x[29,4] +1 x[29,5] +1 x[29,6] +1 x[29,7] +1 x[29,8] +1 x[29,9] +1 x[29,10] +1 x[29,11] +1 x[29,12] +1 x[29,13] +1 x[29,14]  = 1
 auto_c_000000030: +17 x[0,0] +11 x[1,0] +35 x[2,0] +27 x[3,0] +3 x[4,0] +31 x[5,0] +26 x[6,0] +3 x[7,0] +37 x[8,0] +20 x[9,0] +11 x[10,0] +8 x[11,0] +17 x[12,0] +31 x[13,0] +33 x[14,0] +29 x[15,0] +36 x[16,0] +10 x[17,0] +31 x[18,0] +17 x[19,0] +28 x[20,0] +13 x[21,0] +26 x[22,0] +20 x[23,0] +28 x[24,0] +24 x[25,0] +19 x[26,0] +17 x[27,0] +23 x[28,0] +9 x[29,0] -102 y[0]  <= 0
 auto_c_000000031: +17 x[0,1] +11 x[1,1] +35 x[2,1] +27 x[3,1] +3 x[4,1] +31 x[5,1] +26 x[6,1] +3 x[7,1] +37 x[8,1] +20 x[9,1] +11 x[10,1] +8 x[11,1] +17 x[12,1] +31 x[13,1] +33 x[14,1] +29 x[15,1] +36 x[16,1] +10 x[17,1] +31 x[18,1] +17 x[19,1] +28 x[20,1] +13 x[21,1] +26 x[22,1] +20 x[23,1] +28 x[24,1] +24 x[25,1] +19 x[26,1] +17 x[27,1] +23 x[28,1] +9 x[29,1] -80 y[1]  <= 0
 auto_c_000000032: +17 x[0,2] +11 x[1,2] +35 x[2,2] +27 x[3,2] +3 x[4,2] +31 x[5,2] +26 x[6,2] +3 x[7,2] +37 x[8,2] +20 x[9,2] +11 x[10,2] +8 x[11,2] +17 x[12,2] +31 x[13,2] +33 x[14,2] +29 x[15,2] +36 x[16,2] +10 x[17,2] +31 x[18,2] +17 x[19,2] +28 x[20,2] +13 x[21,2] +26 x[22,2] +20 x[23,2] +28 x[24,2] +24 x[25,2] +19 x[26,2] +17 x[27,2] +23 x[28,2] +9 x[29,2] -92 y[2]  <= 0
 auto_c_000000033: +17 x[0,3] +11 x[1,3] +35 x[2,3] +27 x[3,3] +3 x[4,3] +31 x[5,3] +26 x[6,3] +3 x[7,3] +37 x[8,3] +20 x[9,3] +11 x[10,3] +8 x[11,3] +17 x[12,3] +31 x[13,3] +33 x[14,3] +29 x[15,3] +36 x[16,3] +10 x[17,3] +31 x[18,3] +17 x[19,3] +28 x[20,3] +13 x[21,3] +26 x[22,3] +20 x[23,3] +28 x[24,3] +24 x[25,3] +19 x[26,3] +17 x[27,3] +23 x[28,3] +9 x[29,3] -45 y[3]  <= 0
 auto_c_000000034: +17 x[0,4] +11 x[1,4] +35 x[2,4] +27 x[3,4] +3 x[4,4] +31 x[5,4] +26 x[6,4] +3 x[7,4] +37 x[8,4] +20 x[9,4] +11 x[10,4] +8 x[11,4] +17 x[12,4] +31 x[13,4] +33 x[14,4] +29 x[15,4] +36 x[16,4] +10 x[17,4] +31 x[18,4] +17 x[19,4] +28 x[20,4] +13 x[21,4] +26 x[22,4] +20 x[23,4] +28 x[24,4] +24 x[25,4] +19 x[26,4] +17 x[27,4] +23 x[28,4] +9 x[29,4] -56 y[4]  <= 0
 auto_c_000000035: +17 x[0,5] +11 x[1,5] +35 x[2,5] +27 x[3,5] +3 x[4,5] +31 x[5,5] +26 x[6,5] +3 x[7,5] +37 x[8,5] +20 x[9,5] +11 x[10,5] +8 x[11,5] +17 x[12,5] +31 x[13,5] +33 x[14,5] +29 x[15,5] +36 x[16,5] +10 x[17,5] +31 x[18,5] +17 x[19,5] +28 x[20,5] +13 x[21,5] +26 x[22,5] +20 x[23,5] +28 x[24,5] +24 x[25,5] +19 x[26,5] +17 x[27,5] +23 x[28,5] +9 x[29,5] -69 y[5]  <= 0
 auto_c_000000036: +17 x[0,6] +11 x[1,6] +35 x[2,6] +27 x[3,6] +3 x[4,6] +31 x[5,6] +26 x[6,6] +3 x[7,6] +37 x[8,6] +20 x[9,6] +11 x[10,6] +8 x[11,6] +17 x[12,6] +31 x[13,6] +33 x[14,6] +29 x[15,6] +36 x[16,6] +10 x[17,6] +31 x[18,6] +17 x[19,6] +28 x[20,6] +13 x[21,6] +26 x[22,6] +20 x[23,6] +28 x[24,6] +24 x[25,6] +19 x[26,6] +17 x[27,6] +23 x[28,6] +9 x[29,6] -32 y[6]  <= 0
 auto_c_000000037: +17 x[0,7] +11 x[1,7] +35 x[2,7] +27 x[3,7] +3 x[4,7] +31 x[5,7] +26 x[6,7] +3 x[7,7] +37 x[8,7] +20 x[9,7] +11 x[10,7] +8 x[11,7] +17 x[12,7] +31 x[13,7] +33 x[14,7] +29 x[15,7] +36 x[16,7] +10 x[17,7] +31 x[18,7] +17 x[19,7] +28 x[20,7] +13 x[21,7] +26 x[22,7] +20 x[23,7] +28 x[24,7] +24 x[25,7] +19 x[26,7] +17 x[27,7] +23 x[28,7] +9 x[29,7] -65 y[7]  <= 0
 auto_c_000000038: +17 x[0,8] +11 x[1,8] +35 x[2,8] +27 x[3,8] +3 x[4,8] +31 x[5,8] +26 x[6,8] +3 x[7,8] +37 x[8,8] +20 x[9,8] +11 x[10,8] +8 x[11,8] +17 x[12,8] +31 x[13,8] +33 x[14,8] +29 x[15,8] +36 x[16,8] +10 x[17,8] +31 x[18,8] +17 x[19,8] +28 x[20,8] +13 x[21,8] +26 x[22,8] +20 x[23,8] +28 x[24,8] +24 x[25,8] +19 x[26,8] +17 x[27,8] +23 x[28,8] +9 x[29,8] -27 y[8]  <= 0
 auto_c_000000039: +17 x[0,9] +11 x[1,9] +35 x[2,9] +27 x[3,9] +3 x[4,9] +31 x[5,9] +26 x[6,9] +3 x[7,9] +37 x[8,9] +20 x[9,9] +11 x[10,9] +8 x[11,9] +17 x[12,9] +31 x[13,9] +33 x[14,9] +29 x[15,9] +36 x[16,9] +10 x[17,9] +31 x[18,9] +17 x[19,9] +28 x[20,9] +13 x[21,9] +26 x[22,9] +20 x[23,9] +28 x[24,9] +24 x[25,9] +19 x[26,9] +17 x[27,9] +23 x[28,9] +9 x[29,9] -65 y[9]  <= 0
 auto_c_000000040: +17 x[0,10] +11 x[1,10] +35 x[2,10] +27 x[3,10] +3 x[4,10] +31 x[5,10] +26 x[6,10] +3 x[7,10] +37 x[8,10] +20 x[9,10] +11 x[10,10] +8 x[11,10] +17 x[12,10] +31 x[13,10] +33 x[14,10] +29 x[15,10] +36 x[16,10] +10 x[17,10] +31 x[18,10] +17 x[19,10] +28 x[20,10] +13 x[21,10] +26 x[22,10] +20 x[23,10] +28 x[24,10] +24 x[25,10] +19 x[26,10] +17 x[27,10] +23 x[28,10] +9 x[29,10] -137 y[10]  <= 0
 auto_c_000000041: +17 x[0,11] +11 x[1,11] +35 x[2,11] +27 x[3,11] +3 x[4,11] +31 x[5,11] +26 x[6,11] +3 x[7,11] +37 x[8,11] +20 x[9,11] +11 x[10,11] +8 x[11,11] +17 x[12,11] +31 x[13,11] +33 x[14,11] +29 x[15,11] +36 x[16,11] +10 x[17,11] +31 x[18,11] +17 x[19,11] +28 x[20,11] +13 x[21,11] +26 x[22,11] +20 x[23,11] +28 x[24,11] +24 x[25,11] +19 x[26,11] +17 x[27,11] +23 x[28,11] +9 x[29,11] -94 y[11]  <= 0
 auto_c_000000042: +17 x[0,12] +11 x[1,12] +35 x[2,12] +27 x[3,12] +3 x[4,12] +31 x[5,12] +26 x[6,12] +3 x[7,12] +37 x[8,12] +20 x[9,12] +11 x[10,12] +8 x[11,12] +17 x[12,12] +31 x[13,12] +33 x[14,12] +29 x[15,12] +36 x[16,12] +10 x[17,12] +31 x[18,12] +17 x[19,12] +28 x[20,12] +13 x[21,12] +26 x[22,12] +20 x[23,12] +28 x[24,12] +24 x[25,12] +19 x[26,12] +17 x[27,12] +23 x[28,12] +9 x[29,12] -109 y[12]  <= 0
 auto_c_000000043: +17 x[0,13] +11 x[1,13] +35 x[2,13] +27 x[3,13] +3 x[4,13] +31 x[5,13] +26 x[6,13] +3 x[7,13] +37 x[8,13] +20 x[9,13] +11 x[10,13] +8 x[11,13] +17 x[12,13] +31 x[13,13] +33 x[14,13] +29 x[15,13] +36 x[16,13] +10 x[17,13] +31 x[18,13] +17 x[19,13] +28 x[20,13] +13 x[21,13] +26 x[22,13] +20 x[23,13] +28 x[24,13] +24 x[25,13] +19 x[26,13] +17 x[27,13] +23 x[28,13] +9 x[29,13] -68 y[13]  <= 0
 auto_c_000000044: +17 x[0,14] +11 x[1,14] +35 x[2,14] +27 x[3,14] +3 x[4,14] +31 x[5,14] +26 x[6,14] +3 x[7,14] +37 x[8,14] +20 x[9,14] +11 x[10,14] +8 x[11,14] +17 x[12,14] +31 x[13,14] +33 x[14,14] +29 x[15,14] +36 x[16,14] +10 x[17,14] +31 x[18,14] +17 x[19,14] +28 x[20,14] +13 x[21,14] +26 x[22,14] +20 x[23,14] +28 x[24,14] +24 x[25,14] +19 x[26,14] +17 x[27,14] +23 x[28,14] +9 x[29,14] -36 y[14]  <= 0
Bounds
 0 <= x[0,0] <= 1
 0 <= x[0,1] <= 1
 0 <= x[0,2] <= 1
 0 <= x[0,3] <= 1
 0 <= x[0,4] <= 1
 0 <= x[0,5] <= 1
 0 <= x[0,6] <= 1
 0 <= x[0,7] <= 1
 0 <= x[0,8] <= 1
 0 <= x[0,9] <= 1
 0 <= x[0,10] <= 1
 0 <= x[0,11] <= 1
 0 <= x[0,12] <= 1
 0 <= x[0,13] <= 1
 0 <= x[0,14] <= 1
 0 <= x[1,0] <= 1
 0 <= x[1,1] <= 1
 0 <= x[1,2] <= 1
 0 <= x[1,3] <= 1
 0 <= x[1,4] <= 1
 0 <= x[1,5] <= 1
 0 <= x[1,6] <= 1
 0 <= x[1,7] <= 1
 0 <= x[1,8] <= 1
 0 <= x[1,9] <= 1
 0 <= x[1,10] <= 1
 0 <= x[1,11] <= 1
 0 <= x[1,12] <= 1
 0 <= x[1,13] <= 1
 0 <= x[1,14] <= 1
 0 <= x[2,0] <= 1
 0 <= x[2,1] <= 1
 0 <= x[2,2] <= 1
 0 <= x[2,3] <= 1
 0 <= x[2,4] <= 1
 0 <= x[2,5] <= 1
 0 <= x[2,6] <= 1
 0 <= x[2,7] <= 1
 0 <= x[2,8] <= 1
 0 <= x[2,9] <= 1
 0 <= x[2,10] <= 1
 0 <= x[2,11] <= 1
 0 <= x[2,12] <= 1
 0 <= x[2,13] <= 1
 0 <= x[2,14] <= 1
 0 <= x[3,0] <= 1
 0 <= x[3,1] <= 1
 0 <= x[3,2] <= 1
 0 <= x[3,3] <= 1
 0 <= x[3,4] <= 1
 0 <= x[3,5] <= 1
 0 <= x[3,6] <= 1
 0 <= x[3,7] <= 1
 0 <= x[3,8] <= 1
 0 <= x[3,9] <= 1
 0 <= x[3,10] <= 1
 0 <= x[3,11] <= 1
 0 <= x[3,12] <= 1
 0 <= x[3,13] <= 1
 0 <= x[3,14] <= 1
 0 <= x[4,0] <= 1
 0 <= x[4,1] <= 1
 0 <= x[4,2] <= 1
 0 <= x[4,3] <= 1
 0 <= x[4,4] <= 1
 0 <= x[4,5] <= 1
 0 <= x[4,6] <= 1
 0 <= x[4,7] <= 1
 0 <= x[4,8] <= 1
 0 <= x[4,9] <= 1
 0 <= x[4,10] <= 1
 0 <= x[4,11] <= 1
 0 <= x[4,12] <= 1
 0 <= x[4,13] <= 1
 0 <= x[4,14] <= 1
 0 <= x[5,0] <= 1
 0 <= x[5,1] <= 1
 0 <= x[5,2] <= 1
 0 <= x[5,3] <= 1
 0 <= x[5,4] <= 1
 0 <= x[5,5] <= 1
 0 <= x[5,6] <= 1
 0 <= x[5,7] <= 1
 0 <= x[5,8] <= 1
 0 <= x[5,9] <= 1
 0 <= x[5,10] <= 1
 0 <= x[5,11] <= 1
 0 <= x[5,12] <= 1
 0 <= x[5,13] <= 1
 0 <= x[5,14] <= 1
 0 <= x[6,0] <= 1
 0 <= x[6,1] <= 1
 0 <= x[6,2] <= 1
 0 <= x[6,3] <= 1
 0 <= x[6,4] <= 1
 0 <= x[6,5] <= 1
 0 <= x[6,6] <= 1
 0 <= x[6,7] <= 1
 0 <= x[6,8] <= 1
 0 <= x[6,9] <= 1
 0 <= x[6,10] <= 1
 0 <= x[6,11] <= 1
 0 <= x[6,12] <= 1
 0 <= x[6,13] <= 1
 0 <= x[6,14] <= 1
 0 <= x[7,0] <= 1
 0 <= x[7,1] <= 1
 0 <= x[7,2] <= 1
 0 <= x[7,3] <= 1
 0 <= x[7,4] <= 1
 0 <= x[7,5] <= 1
 0 <= x[7,6] <= 1
 0 <= x[7,7] <= 1
 0 <= x[7,8] <= 1
 0 <= x[7,9] <= 1
 0 <= x[7,10] <= 1
 0 <= x[7,11] <= 1
 0 <= x[7,12] <= 1
 0 <= x[7,13] <= 1
 0 <= x[7,14] <= 1
 0 <= x[8,0] <= 1
 0 <= x[8,1] <= 1
 0 <= x[8,2] <= 1
 0 <= x[8,3] <= 1
 0 <= x[8,4] <= 1
 0 <= x[8,5] <= 1
 0 <= x[8,6] <= 1
 0 <= x[8,7] <= 1
 0 <= x[8,8] <= 1
 0 <= x[8,9] <= 1
 0 <= x[8,10] <= 1
 0 <= x[8,11] <= 1
 0 <= x[8,12] <= 1
 0 <= x[8,13] <= 1
 0 <= x[8,14] <= 1
 0 <= x[9,0] <= 1
 0 <= x[9,1] <= 1
 0 <= x[9,2] <= 1
 0 <= x[9,3] <= 1
 0 <= x[9,4] <= 1
 0 <= x[9,5] <= 1
 0 <= x[9,6] <= 1
 0 <= x[9,7] <= 1
 0 <= x[9,8] <= 1
 0 <= x[9,9] <= 1
 0 <= x[9,10] <= 1
 0 <= x[9,11] <= 1
 0 <= x[9,12] <= 1
 0 <= x[9,13] <= 1
 0 <= x[9,14] <= 1
 0 <= x[10,0] <= 1
 0 <= x[10,1] <= 1
 0 <= x[10,2] <= 1
 0 <= x[10,3] <= 1
 0 <= x[10,4] <= 1
 0 <= x[10,5] <= 1
 0 <= x[10,6] <= 1
 0 <= x[10,7] <= 1
 0 <= x[10,8] <= 1
 0 <= x[10,9] <= 1
 0 <= x[10,10] <= 1
 0 <= x[10,11] <= 1
 0 <= x[10,12] <= 1
 0 <= x[10,13] <= 1
 0 <= x[10,14] <= 1
 0 <= x[11,0] <= 1
 0 <= x[11,1] <= 1
 0 <= x[11,2] <= 1
 0 <= x[11,3] <= 1
 0 <= x[11,4] <= 1
 0 <= x[11,5] <= 1
 0 <= x[11,6] <= 1
 0 <= x[11,7] <= 1
 0 <= x[11,8] <= 1
 0 <= x[11,9] <= 1
 0 <= x[11,10] <= 1
 0 <= x[11,11] <= 1
 0 <= x[11,12] <= 1
 0 <= x[11,13] <= 1
 0 <= x[11,14] <= 1
 0 <= x[12,0] <= 1
 0 <= x[12,1] <= 1
 0 <= x[12,2] <= 1
 0 <= x[12,3] <= 1
 0 <= x[12,4] <= 1
 0 <= x[12,5] <= 1
 0 <= x[12,6] <= 1
 0 <= x[12,7] <= 1
 0 <= x[12,8] <= 1
 0 <= x[12,9] <= 1
 0 <= x[12,10] <= 1
 0 <= x[12,11] <= 1
 0 <= x[12,12] <= 1
 0 <= x[12,13] <= 1
 0 <= x[12,14] <= 1
 0 <= x[13,0] <= 1
 0 <= x[13,1] <= 1
 0 <= x[13,2] <= 1
 0 <= x[13,3] <= 1
 0 <= x[13,4] <= 1
 0 <= x[13,5] <= 1
 0 <= x[13,6] <= 1
 0 <= x[13,7] <= 1
 0 <= x[13,8] <= 1
 0 <= x[13,9] <= 1
 0 <= x[13,10] <= 1
 0 <= x[13,11] <= 1
 0 <= x[13,12] <= 1
 0 <= x[13,13] <= 1
 0 <= x[13,14] <= 1
 0 <= x[14,0] <= 1
 0 <= x[14,1] <= 1
 0 <= x[14,2] <= 1
 0 <= x[14,3] <= 1
 0 <= x[14,4] <= 1
 0 <= x[14,5] <= 1
 0 <= x[14,6] <= 1
 0 <= x[14,7] <= 1
 0 <= x[14,8] <= 1
 0 <= x[14,9] <= 1
 0 <= x[14,10] <= 1
 0 <= x[14,11] <= 1
 0 <= x[14,12] <= 1
 0 <= x[14,13] <= 1
 0 <= x[14,14] <= 1
 0 <= x[15,0] <= 1
 0 <= x[15,1] <= 1
 0 <= x[15,2] <= 1
 0 <= x[15,3] <= 1
 0 <= x[15,4] <= 1
 0 <= x[15,5] <= 1
 0 <= x[15,6] <= 1
 0 <= x[15,7] <= 1
 0 <= x[15,8] <= 1
 0 <= x[15,9] <= 1
 0 <= x[15,10] <= 1
 0 <= x[15,11] <= 1
 0 <= x[15,12] <= 1
 0 <= x[15,13] <= 1
 0 <= x[15,14] <= 1
 0 <= x[16,0] <= 1
 0 <= x[16,1] <= 1
 0 <= x[16,2] <= 1
 0 <= x[16,3] <= 1
 0 <= x[16,4] <= 1
 0 <= x[16,5] <= 1
 0 <= x[16,6] <= 1
 0 <= x[16,7] <= 1
 0 <= x[16,8] <= 1
 0 <= x[16,9] <= 1
 0 <= x[16,10] <= 1
 0 <= x[16,11] <= 1
 0 <= x[16,12] <= 1
 0 <= x[16,13] <= 1
 0 <= x[16,14] <= 1
 0 <= x[17,0] <= 1
 0 <= x[17,1] <= 1
 0 <= x[17,2] <= 1
 0 <= x[17,3] <= 1
 0 <= x[17,4] <= 1
 0 <= x[17,5] <= 1
 0 <= x[17,6] <= 1
 0 <= x[17,7] <= 1
 0 <= x[17,8] <= 1
 0 <= x[17,9] <= 1
 0 <= x[17,10] <= 1
 0 <= x[17,11] <= 1
 0 <= x[17,12] <= 1
 0 <= x[17,13] <= 1
 0 <= x[17,14] <= 1
 0 <= x[18,0] <= 1
 0 <= x[18,1] <= 1
 0 <= x[18,2] <= 1
 0 <= x[18,3] <= 1
 0 <= x[18,4] <= 1
 0 <= x[18,5] <= 1
 0 <= x[18,6] <= 1
 0 <= x[18,7] <= 1
 0 <= x[18,8] <= 1
 0 <= x[18,9] <= 1
 0 <= x[18,10] <= 1
 0 <= x[18,11] <= 1
 0 <= x[18,12] <= 1
 0 <= x[18,13] <= 1
 0 <= x[18,14] <= 1
 0 <= x[19,0] <= 1
 0 <= x[19,1] <= 1
 0 <= x[19,2] <= 1
 0 <= x[19,3] <= 1
 0 <= x[19,4] <= 1
 0 <= x[19,5] <= 1
 0 <= x[19,6] <= 1
 0 <= x[19,7] <= 1
 0 <= x[19,8] <= 1
 0 <= x[19,9] <= 1
 0 <= x[19,10] <= 1
 0 <= x[19,11] <= 1
 0 <= x[19,12] <= 1
 0 <= x[19,13] <= 1
 0 <= x[19,14] <= 1
 0 <= x[20,0] <= 1
 0 <= x[20,1] <= 1
 0 <= x[20,2] <= 1
 0 <= x[20,3] <= 1
 0 <= x[20,4] <= 1
 0 <= x[20,5] <= 1
 0 <= x[20,6] <= 1
 0 <= x[20,7] <= 1
 0 <= x[20,8] <= 1
 0 <= x[20,9] <= 1
 0 <= x[20,10] <= 1
 0 <= x[20,11] <= 1
 0 <= x[20,12] <= 1
 0 <= x[20,13] <= 1
 0 <= x[20,14] <= 1
 0 <= x[21,0] <= 1
 0 <= x[21,1] <= 1
 0 <= x[21,2] <= 1
 0 <= x[21,3] <= 1
 0 <= x[21,4] <= 1
 0 <= x[21,5] <= 1
 0 <= x[21,6] <= 1
 0 <= x[21,7] <= 1
 0 <= x[21,8] <= 1
 0 <= x[21,9] <= 1
 0 <= x[21,10] <= 1
 0 <= x[21,11] <= 1
 0 <= x[21,12] <= 1
 0 <= x[21,13] <= 1
 0 <= x[21,14] <= 1
 0 <= x[22,0] <= 1
 0 <= x[22,1] <= 1
 0 <= x[22,2] <= 1
 0 <= x[22,3] <= 1
 0 <= x[22,4] <= 1
 0 <= x[22,5] <= 1
 0 <= x[22,6] <= 1
 0 <= x[22,7] <= 1
 0 <= x[22,8] <= 1
 0 <= x[22,9] <= 1
 0 <= x[22,10] <= 1
 0 <= x[22,11] <= 1
 0 <= x[22,12] <= 1
 0 <= x[22,13] <= 1
 0 <= x[22,14] <= 1
 0 <= x[23,0] <= 1
 0 <= x[23,1] <= 1
 0 <= x[23,2] <= 1
 0 <= x[23,3] <= 1
 0 <= x[23,4] <= 1
 0 <= x[23,5] <= 1
 0 <= x[23,6] <= 1
 0 <= x[23,7] <= 1
 0 <= x[23,8] <= 1
 0 <= x[23,9] <= 1
 0 <= x[23,10] <= 1
 0 <= x[23,11] <= 1
 0 <= x[23,12] <= 1
 0 <= x[23,13] <= 1
 0 <= x[23,14] <= 1
 0 <= x[24,0] <= 1
 0 <= x[24,1] <= 1
 0 <= x[24,2] <= 1
 0 <= x[24,3] <= 1
 0 <= x[24,4] <= 1
 0 <= x[24,5] <= 1
 0 <= x[24,6] <= 1
 0 <= x[24,7] <= 1
 0 <= x[24,8] <= 1
 0 <= x[24,9] <= 1
 0 <= x[24,10] <= 1
 0 <= x[24,11] <= 1
 0 <= x[24,12] <= 1
 0 <= x[24,13] <= 1
 0 <= x[24,14] <= 1
 0 <= x[25,0] <= 1
 0 <= x[25,1] <= 1
 0 <= x[25,2] <= 1
 0 <= x[25,3] <= 1
 0 <= x[25,4] <= 1
 0 <= x[25,5] <= 1
 0 <= x[25,6] <= 1
 0 <= x[25,7] <= 1
 0 <= x[25,8] <= 1
 0 <= x[25,9] <= 1
 0 <= x[25,10] <= 1
 0 <= x[25,11] <= 1
 0 <= x[25,12] <= 1
 0 <= x[25,13] <= 1
 0 <= x[25,14] <= 1
 0 <= x[26,0] <= 1
 0 <= x[26,1] <= 1
 0 <= x[26,2] <= 1
 0 <= x[26,3] <= 1
 0 <= x[26,4] <= 1
 0 <= x[26,5] <= 1
 0 <= x[26,6] <= 1
 0 <= x[26,7] <= 1
 0 <= x[26,8] <= 1
 0 <= x[26,9] <= 1
 0 <= x[26,10] <= 1
 0 <= x[26,11] <= 1
 0 <= x[26,12] <= 1
 0 <= x[26,13] <= 1
 0 <= x[26,14] <= 1
 0 <= x[27,0] <= 1
 0 <= x[27,1] <= 1
 0 <= x[27,2] <= 1
 0 <= x[27,3] <= 1
 0 <= x[27,4] <= 1
 0 <= x[27,5] <= 1
 0 <= x[27,6] <= 1
 0 <= x[27,7] <= 1
 0 <= x[27,8] <= 1
 0 <= x[27,9] <= 1
 0 <= x[27,10] <= 1
 0 <= x[27,11] <= 1
 0 <= x[27,12] <= 1
 0 <= x[27,13] <= 1
 0 <= x[27,14] <= 1
 0 <= x[28,0] <= 1
 0 <= x[28,1] <= 1
 0 <= x[28,2] <= 1
 0 <= x[28,3] <= 1
 0 <= x[28,4] <= 1
 0 <= x[28,5] <= 1
 0 <= x[28,6] <= 1
 0 <= x[28,7] <= 1
 0 <= x[28,8] <= 1
 0 <= x[28,9] <= 1
 0 <= x[28,10] <= 1
 0 <= x[28,11] <= 1
 0 <= x[28,12] <= 1
 0 <= x[28,13] <= 1
 0 <= x[28,14] <= 1
 0 <= x[29,0] <= 1
 0 <= x[29,1] <= 1
 0 <= x[29,2] <= 1
 0 <= x[29,3] <= 1
 0 <= x[29,4] <= 1
 0 <= x[29,5] <= 1
 0 <= x[29,6] <= 1
 0 <= x[29,7] <= 1
 0 <= x[29,8] <= 1
 0 <= x[29,9] <= 1
 0 <= x[29,10] <= 1
 0 <= x[29,11] <= 1
 0 <= x[29,12] <= 1
 0 <= x[29,13] <= 1
 0 <= x[29,14] <= 1
 0 <= y[0] <= 1
 0 <= y[1] <= 1
 0 <= y[2] <= 1
 0 <= y[3] <= 1
 0 <= y[4] <= 1
 0 <= y[5] <= 1
 0 <= y[6] <= 1
 0 <= y[7] <= 1
 0 <= y[8] <= 1
 0 <= y[9] <= 1
 0 <= y[10] <= 1
 0 <= y[11] <= 1
 0 <= y[12] <= 1
 0 <= y[13] <= 1
 0 <= y[14] <= 1
Binaries
 x[0,0]
 x[0,1]
 x[0,2]
 x[0,3]
 x[0,4]
 x[0,5]
 x[0,6]
 x[0,7]
 x[0,8]
 x[0,9]
 x[0,10]
 x[0,11]
 x[0,12]
 x[0,13]
 x[0,14]
 x[1,0]
 x[1,1]
 x[1,2]
 x[1,3]
 x[1,4]
 x[1,5]
 x[1,6]
 x[1,7]
 x[1,8]
 x[1,9]
 x[1,10]
 x[1,11]
 x[1,12]
 x[1,13]
 x[1,14]
 x[2,0]
 x[2,1]
 x[2,2]
 x[2,3]
 x[2,4]
 x[2,5]
 x[2,6]
 x[2,7]
 x[2,8]
 x[2,9]
 x[2,10]
 x[2,11]
 x[2,12]
 x[2,13]
 x[2,14]
 x[3,0]
 x[3,1]
 x[3,2]
 x[3,3]
 x[3,4]
 x[3,5]
 x[3,6]
 x[3,7]
 x[3,8]
 x[3,9]
 x[3,10]
 x[3,11]
 x[3,12]
 x[3,13]
 x[3,14]
 x[4,0]
 x[4,1]
 x[4,2]
 x[4,3]
 x[4,4]
 x[4,5]
 x[4,6]
 x[4,7]
 x[4,8]
 x[4,9]
 x[4,10]
 x[4,11]
 x[4,12]
 x[4,13]
 x[4,14]
 x[5,0]
 x[5,1]
 x[5,2]
 x[5,3]
 x[5,4]
 x[5,5]
 x[5,6]
 x[5,7]
 x[5,8]
 x[5,9]
 x[5,10]
 x[5,11]
 x[5,12]
 x[5,13]
 x[5,14]
 x[6,0]
 x[6,1]
 x[6,2]
 x[6,3]
 x[6,4]
 x[6,5]
 x[6,6]
 x[6,7]
 x[6,8]
 x[6,9]
 x[6,10]
 x[6,11]
 x[6,12]
 x[6,13]
 x[6,14]
 x[7,0]
 x[7,1]
 x[7,2]
 x[7,3]
 x[7,4]
 x[7,5]
 x[7,6]
 x[7,7]
 x[7,8]
 x[7,9]
 x[7,10]
 x[7,11]
 x[7,12]
 x[7,13]
 x[7,14]
 x[8,0]
 x[8,1]
 x[8,2]
 x[8,3]
 x[8,4]
 x[8,5]
 x[8,6]
 x[8,7]
 x[8,8]
 x[8,9]
 x[8,10]
 x[8,11]
 x[8,12]
 x[8,13]
 x[8,14]
 x[9,0]
 x[9,1]
 x[9,2]
 x[9,3]
 x[9,4]
 x[9,5]
 x[9,6]
 x[9,7]
 x[9,8]
 x[9,9]
 x[9,10]
 x[9,11]
 x[9,12]
 x[9,13]
 x[9,14]
 x[10,0]
 x[10,1]
 x[10,2]
 x[10,3]
 x[10,4]
 x[10,5]
 x[10,6]
 x[10,7]
 x[10,8]
 x[10,9]
 x[10,10]
 x[10,11]
 x[10,12]
 x[10,13]
 x[10,14]
 x[11,0]
 x[11,1]
 x[11,2]
 x[11,3]
 x[11,4]
 x[11,5]
 x[11,6]
 x[11,7]
 x[11,8]
 x[11,9]
 x[11,10]
 x[11,11]
 x[11,12]
 x[11,13]
 x[11,14]
 x[12,0]
 x[12,1]
 x[12,2]
 x[12,3]
 x[12,4]
 x[12,5]
 x[12,6]
 x[12,7]
 x[12,8]
 x[12,9]
 x[12,10]
 x[12,11]
 x[12,12]
 x[12,13]
 x[12,14]
 x[13,0]
 x[13,1]
 x[13,2]
 x[13,3]
 x[13,4]
 x[13,5]
 x[13,6]
 x[13,7]
 x[13,8]
 x[13,9]
 x[13,10]
 x[13,11]
 x[13,12]
 x[13,13]
 x[13,14]
 x[14,0]
 x[14,1]
 x[14,2]
 x[14,3]
 x[14,4]
 x[14,5]
 x[14,6]
 x[14,7]
 x[14,8]
 x[14,9]
 x[14,10]
 x[14,11]
 x[14,12]
 x[14,13]
 x[14,14]
 x[15,0]
 x[15,1]
 x[15,2]
 x[15,3]
 x[15,4]
 x[15,5]
 x[15,6]
 x[15,7]
 x[15,8]
 x[15,9]
 x[15,10]
 x[15,11]
 x[15,12]
 x[15,13]
 x[15,14]
 x[16,0]
 x[16,1]
 x[16,2]
 x[16,3]
 x[16,4]
 x[16,5]
 x[16,6]
 x[16,7]
 x[16,8]
 x[16,9]
 x[16,10]
 x[16,11]
 x[16,12]
 x[16,13]
 x[16,14]
 x[17,0]
 x[17,1]
 x[17,2]
 x[17,3]
 x[17,4]
 x[17,5]
 x[17,6]
 x[17,7]
 x[17,8]
 x[17,9]
 x[17,10]
 x[17,11]
 x[17,12]
 x[17,13]
 x[17,14]
 x[18,0]
 x[18,1]
 x[18,2]
 x[18,3]
 x[18,4]
 x[18,5]
 x[18,6]
 x[18,7]
 x[18,8]
 x[18,9]
 x[18,10]
 x[18,11]
 x[18,12]
 x[18,13]
 x[18,14]
 x[19,0]
 x[19,1]
 x[19,2]
 x[19,3]
 x[19,4]
 x[19,5]
 x[19,6]
 x[19,7]
 x[19,8]
 x[19,9]
 x[19,10]
 x[19,11]
 x[19,12]
 x[19,13]
 x[19,14]
 x[20,0]
 x[20,1]
 x[20,2]
 x[20,3]
 x[20,4]
 x[20,5]
 x[20,6]
 x[20,7]
 x[20,8]
 x[20,9]
 x[20,10]
 x[20,11]
 x[20,12]
 x[20,13]
 x[20,14]
 x[21,0]
 x[21,1]
 x[21,2]
 x[21,3]
 x[21,4]
 x[21,5]
 x[21,6]
 x[21,7]
 x[21,8]
 x[21,9]
 x[21,10]
 x[21,11]
 x[21,12]
 x[21,13]
 x[21,14]
 x[22,0]
 x[22,1]
 x[22,2]
 x[22,3]
 x[22,4]
 x[22,5]
 x[22,6]
 x[22,7]
 x[22,8]
 x[22,9]
 x[22,10]
 x[22,11]
 x[22,12]
 x[22,13]
 x[22,14]
 x[23,0]
 x[23,1]
 x[23,2]
 x[23,3]
 x[23,4]
 x[23,5]
 x[23,6]
 x[23,7]
 x[23,8]
 x[23,9]
 x[23,10]
 x[23,11]
 x[23,12]
 x[23,13]
 x[23,14]
 x[24,0]
 x[24,1]
 x[24,2]
 x[24,3]
 x[24,4]
 x[24,5]
 x[24,6]
 x[24,7]
 x[24,8]
 x[24,9]
 x[24,10]
 x[24,11]
 x[24,12]
 x[24,13]
 x[24,14]
 x[25,0]
 x[25,1]
 x[25,2]
 x[25,3]
 x[25,4]
 x[25,5]
 x[25,6]
 x[25,7]
 x[25,8]
 x[25,9]
 x[25,10]
 x[25,11]
 x[25,12]
 x[25,13]
 x[25,14]
 x[26,0]
 x[26,1]
 x[26,2]
 x[26,3]
 x[26,4]
 x[26,5]
 x[26,6]
 x[26,7]
 x[26,8]
 x[26,9]
 x[26,10]
 x[26,11]
 x[26,12]
 x[26,13]
 x[26,14]
 x[27,0]
 x[27,1]
 x[27,2]
 x[27,3]
 x[27,4]
 x[27,5]
 x[27,6]
 x[27,7]
 x[27,8]
 x[27,9]
 x[27,10]
 x[27,11]
 x[27,12]
 x[27,13]
 x[27,14]
 x[28,0]
 x[28,1]
 x[28,2]
 x[28,3]
 x[28,4]
 x[28,5]
 x[28,6]
 x[28,7]
 x[28,8]
 x[28,9]
 x[28,10]
 x[28,11]
 x[28,12]
 x[28,13]
 x[28,14]
 x[29,0]
 x[29,1]
 x[29,2]
 x[29,3]
 x[29,4]
 x[29,5]
 x[29,6]
 x[29,7]
 x[29,8]
 x[29,9]
 x[29,10]
 x[29,11]
 x[29,12]
 x[29,13]
 x[29,14]
 y[0]
 y[1]
 y[2]
 y[3]
 y[4]
 y[5]
 y[6]
 y[7]
 y[8]
 y[9]
 y[10]
 y[11]
 y[12]
 y[13]
 y[14]
End
